NAME : block_20.553661.tour
COMMENT : Length = 553661
COMMENT : Found by LKH-3 [Keld Helsgaun] Mon Feb  2 23:12:46 2026
TYPE : TOUR
DIMENSION : 157
TOUR_SECTION
138
127
128
112
93
74
55
37
22
23
38
56
75
94
113
129
140
141
130
114
95
76
57
39
24
13
14
6
7
15
16
17
9
8
3
4
5
10
11
12
20
31
46
47
32
48
66
85
104
120
103
84
65
64
83
102
101
82
63
45
30
19
18
29
44
62
81
100
119
118
99
80
61
43
28
27
42
60
79
98
117
132
116
97
78
59
41
26
25
40
58
77
96
115
131
2
157
1
121
105
86
67
49
68
87
106
122
133
142
149
150
143
134
123
107
88
69
50
51
33
34
52
71
70
89
108
124
135
144
151
155
156
152
145
136
125
109
90
91
72
53
35
21
36
54
73
92
111
110
126
137
146
153
154
147
148
139
-1
EOF
